
List of user-set options:

                                    Name   Value                used
                         derivative_test = first-order           yes
                        file_print_level = 5                     yes
                   hessian_approximation = limited-memory        yes
                                  hsllib = /home/ggs24/packages/ThirdParty-HSL/.libs/libcoinhsl.so  yes
                           linear_solver = ma97                  yes
                                max_iter = 500                   yes
                             output_file = IPOPT.out             yes
                             print_level = 5                     yes
                      print_user_options = yes                   yes
                                      sb = yes                   yes
This is Ipopt version 3.14.7, running with linear solver ma97.

Starting derivative checker for first derivatives.

* jac_g [   93,    5] =  2.5294817042887638e-04 v  ~  2.5297480486233026e-04  [ 1.053e-04]
* jac_g [  124,    6] =  1.6213175528783512e-15 v  ~ -2.0507722237822871e-08  [ 2.051e-04]

Derivative checker detected 2 error(s).

Number of nonzeros in equality constraint Jacobian...:       60
Number of nonzeros in inequality constraint Jacobian.:     7260
Number of nonzeros in Lagrangian Hessian.............:        0

Total number of variables............................:       15
                     variables with only lower bounds:        1
                variables with lower and upper bounds:        0
                     variables with only upper bounds:        0
Total number of equality constraints.................:        4
Total number of inequality constraints...............:      484
        inequality constraints with only lower bounds:        0
   inequality constraints with lower and upper bounds:      363
        inequality constraints with only upper bounds:      121

iter    objective    inf_pr   inf_du lg(mu)  ||d||  lg(rg) alpha_du alpha_pr  ls
   0  1.0000000e-01 1.78e+02 5.13e-01   0.0 0.00e+00    -  0.00e+00 0.00e+00   0
   1  1.0105199e-01 1.78e+02 6.42e+01  -0.6 2.34e+01    -  3.22e-05 2.08e-03f  1
   2  1.0143827e-01 1.78e+02 3.28e+01   0.3 3.67e+01    -  1.47e-03 5.11e-04f  1
   3  1.0429447e-01 1.77e+02 8.65e+01   0.4 2.33e+01    -  6.69e-03 4.54e-03f  1
   4  1.0694098e-01 1.76e+02 3.61e+03   0.8 1.93e+01    -  4.10e-01 4.55e-03f  1
   5  1.0707044e-01 1.76e+02 5.70e+04   2.5 2.18e+01    -  5.16e-03 2.32e-04h  1
   6  1.0707970e-01 1.76e+02 5.75e+04  -5.3 3.99e+01    -  2.61e-05 1.77e-05h  1
   7  1.0736467e-01 1.76e+02 7.26e+04   2.7 2.83e+01    -  9.43e-04 6.29e-04h  1
   8  1.0742045e-01 1.76e+02 5.21e+05   2.7 3.39e+01    -  6.08e-04 1.38e-04h  1
   9  1.0745199e-01 1.76e+02 2.14e+06   2.7 4.64e+01    -  5.91e-04 9.98e-05h  1
iter    objective    inf_pr   inf_du lg(mu)  ||d||  lg(rg) alpha_du alpha_pr  ls
  10  1.0747065e-01 1.76e+02 6.72e+06   2.8 4.16e+01    -  3.58e-04 5.22e-05h  1
  11  1.0747485e-01 1.76e+02 1.75e+07   2.8 2.13e+01    -  1.40e-04 1.85e-05h  1
  12  1.0748356e-01 1.76e+02 1.32e+07  -5.1 2.17e+01    -  1.74e-05 2.79e-05h  1
  13r 1.0748356e-01 1.76e+02 1.00e+03   2.8 0.00e+00    -  0.00e+00 4.84e-07R  4
  14r 1.1644167e-01 9.69e+01 1.97e+03   1.6 1.80e+02    -  3.46e-02 3.10e-02f  1
  15  1.1677811e-01 9.69e+01 1.03e+00  -0.2 3.56e+01    -  4.63e-04 4.82e-04f  1
  16  1.1679223e-01 9.69e+01 3.58e+01  -6.2 4.51e+01    -  2.26e-04 1.31e-05h  1
  17  1.1702254e-01 9.69e+01 7.73e+01  -0.7 6.36e+01    -  2.89e-04 1.56e-04h  1
  18  1.1730160e-01 9.69e+01 1.21e+02  -0.3 1.05e+02    -  1.67e-04 1.06e-04h  1
  19  1.1852597e-01 9.68e+01 2.07e+02   1.2 2.79e+02    -  2.15e-05 1.53e-04h  1
iter    objective    inf_pr   inf_du lg(mu)  ||d||  lg(rg) alpha_du alpha_pr  ls
  20  1.1883360e-01 9.68e+01 1.78e+03   1.0 2.67e+02    -  4.88e-04 3.93e-05h  1
  21r 1.1883360e-01 9.68e+01 1.00e+03   0.8 0.00e+00    -  0.00e+00 2.86e-07R  6
  22r 1.2123379e-01 8.93e+01 9.99e+02   1.6 4.74e+03    -  7.43e-04 1.02e-04f  1
  23r 1.6115788e-01 5.26e+01 9.98e+02   1.9 2.64e+03    -  1.18e-03 1.13e-03f  1
  24  1.6112090e-01 5.26e+01 1.01e+01  -0.2 3.22e+01    -  4.88e-04 6.34e-05h  1
  25  1.6072770e-01 5.25e+01 1.64e+02   0.3 4.14e+01    -  3.20e-03 2.60e-04h  1
  26  1.6042383e-01 5.25e+01 1.98e+05   1.3 4.20e+01    -  1.91e-01 1.61e-04h  1
  27  1.6018417e-01 5.25e+01 7.82e+05   2.6 4.39e+01    -  6.97e-04 1.20e-04h  1
  28  1.6010782e-01 5.25e+01 5.59e+06   2.7 4.33e+01    -  4.29e-04 3.77e-05h  1
  29  1.6006621e-01 5.25e+01 3.50e+07   2.7 4.26e+01    -  2.04e-04 2.04e-05h  1
iter    objective    inf_pr   inf_du lg(mu)  ||d||  lg(rg) alpha_du alpha_pr  ls
  30r 1.6006621e-01 5.25e+01 1.00e+03   2.8 0.00e+00    -  0.00e+00 3.51e-07R  5
  31r 2.5393927e-01 6.40e+01 1.75e+03  -3.5 2.69e+01    -  1.08e-01 1.35e-01f  1
  32r 2.5700456e-01 6.36e+01 1.75e+03   1.6 1.07e+01    -  3.23e-01 3.51e-03f  1
  33r 4.5908059e-01 4.36e+01 1.23e+03   1.2 6.33e+00    -  2.18e-01 4.61e-01f  1
  34r 7.1807465e-01 2.75e+01 1.64e+03   1.1 2.01e+00    -  1.63e-01 5.72e-01f  1
  35r 1.0006901e+00 1.99e+01 5.27e+02  -4.1 1.69e+00    -  2.47e-01 3.84e-01f  1
  36r 1.6594887e+00 1.47e+01 5.78e+02   0.9 4.54e+00    -  1.49e-01 4.60e-01f  1
  37r 2.1477894e+00 1.17e+01 8.24e+02  -4.5 2.59e+00    -  9.27e-02 2.66e-01f  1
  38r 2.8116253e+00 1.02e+01 8.89e+02   1.4 8.19e+00    -  6.58e-02 1.82e-01f  1
  39r 3.0847086e+00 8.08e+00 8.62e+02  -4.7 7.53e+00    -  3.49e-01 2.26e-01f  1
iter    objective    inf_pr   inf_du lg(mu)  ||d||  lg(rg) alpha_du alpha_pr  ls
  40r 4.1340678e+00 4.96e+00 5.18e+02   1.1 8.04e+00    -  8.57e-01 7.15e-01f  1
  41r 6.1624225e+00 4.27e+00 4.36e+02   0.8 3.09e+00    -  7.79e-01 8.27e-01f  1
  42r 8.1282097e+00 4.26e+00 4.02e+02   0.6 2.61e+00    -  6.93e-01 8.12e-01f  1
  43r 1.0534522e+01 4.10e+00 7.32e+02   0.6 2.41e+00    -  7.77e-01 1.00e+00f  1
  44r 1.1770500e+01 4.22e+00 1.38e+02   0.9 4.82e+00    -  2.59e-01 2.62e-01f  1
  45r 1.2694017e+01 4.12e+00 7.91e+02   0.6 2.80e+00    -  3.21e-02 4.61e-01f  1
  46r 1.4827420e+01 4.01e+00 5.01e+02   0.4 2.60e+00    -  6.07e-01 9.63e-01f  1
  47r 1.7174546e+01 3.68e+00 1.23e+03   1.2 1.28e+01    -  2.41e-01 3.39e-01f  1
  48r 2.3264940e+01 3.29e+00 7.22e+02   0.8 5.01e+01    -  3.67e-01 4.96e-01f  1
  49  2.3263889e+01 3.28e+00 5.49e+02  -0.2 2.64e+01    -  4.65e-02 2.02e-03h  1
iter    objective    inf_pr   inf_du lg(mu)  ||d||  lg(rg) alpha_du alpha_pr  ls
  50  2.3355383e+01 3.21e+00 3.58e+03   0.6 4.24e+01    -  9.96e-01 2.04e-02h  1
  51  2.3402538e+01 3.15e+00 1.20e+05   2.5 1.74e+01    -  4.36e-01 1.85e-02f  1
  52  2.4500199e+01 2.25e+00 8.10e+05   2.8 3.37e+01    -  9.21e-02 2.88e-01f  1
  53  2.4673732e+01 2.12e+00 8.52e+05  -3.7 1.76e+01    -  2.41e-01 5.67e-02h  1
  54  2.5371135e+01 1.60e+00 2.06e+06   2.1 1.57e+01    -  8.46e-01 2.43e-01h  1
  55  2.6489207e+01 8.34e-01 3.24e+06   2.2 1.34e+01    -  1.00e+00 4.80e-01h  1
  56  1.3436495e+01 2.42e+00 2.30e+07   2.8 2.24e+01    -  1.95e-01 1.00e+00f  1
  57  1.4564059e+01 6.90e-01 5.14e+06  -3.6 8.91e+00    -  5.85e-01 7.91e-01h  1
  58  1.4602330e+01 6.44e-01 4.80e+06  -4.0 3.58e+00    -  7.54e-02 6.64e-02h  1
  59  1.4638308e+01 3.78e-01 2.80e+06   0.8 3.62e+00    -  2.64e-01 4.16e-01h  1
iter    objective    inf_pr   inf_du lg(mu)  ||d||  lg(rg) alpha_du alpha_pr  ls
  60  1.5473842e+01 1.68e-01 1.26e+06   0.5 1.54e+00    -  3.00e-01 5.85e-01h  1
  61  1.5888592e+01 1.51e-02 3.39e+05   0.2 9.09e-01    -  4.10e-01 9.20e-01h  1
  62  1.5994918e+01 4.50e-05 4.99e+04  -0.6 2.21e-01    -  7.76e-01 1.00e+00f  1
  63  1.5925105e+01 7.08e-07 4.40e+03  -5.1 6.98e-02    -  8.98e-01 1.00e+00h  1
  64  1.3778910e+01 3.57e-02 3.55e+03  -2.2 2.15e+00    -  2.83e-01 1.00e+00f  1
  65  1.3657941e+01 8.88e-16 2.29e+02  -6.3 2.39e-01    -  9.17e-01 1.00e+00h  1
  66  1.3116612e+01 6.80e-03 1.03e+02  -7.3 5.41e-01    -  4.22e-01 1.00e+00h  1
  67  1.2312510e+01 5.01e-02 1.11e+02  -2.5 1.08e+00    -  2.85e-01 1.00e+00h  1
  68  1.2024007e+01 3.26e-02 2.84e+01  -2.9 1.30e+00    -  5.72e-01 8.19e-01h  1
  69  1.1996826e+01 2.58e-02 2.25e+01  -8.1 1.03e+00    -  3.65e-01 1.76e-01h  1
iter    objective    inf_pr   inf_du lg(mu)  ||d||  lg(rg) alpha_du alpha_pr  ls
  70  1.1994801e+01 2.50e-02 2.21e+01  -8.2 1.11e+00    -  2.08e-02 1.85e-02h  1
  71  1.1941352e+01 2.02e-02 1.88e+01  -4.4 2.14e+00    -  1.12e-01 2.02e-01h  1
  72  1.1939463e+01 1.95e-02 1.85e+01  -8.3 1.74e+00    -  2.15e-02 1.59e-02h  1
  73  1.1886916e+01 1.86e-02 1.60e+01  -4.4 3.00e+00    -  1.06e-01 1.96e-01h  1
  74  1.1883871e+01 1.81e-02 1.57e+01  -8.4 5.07e+00    -  2.54e-02 1.27e-02h  1
  75  1.1882713e+01 3.95e-03 8.92e+00  -4.5 1.15e-01    -  3.38e-01 5.98e-01h  1
  76  1.1881202e+01 3.82e-03 8.26e+00  -8.6 3.15e-01    -  6.39e-02 3.87e-02h  1
  77  1.1833329e+01 7.61e-03 6.72e+00  -4.7 1.09e+00    -  2.75e-01 6.11e-01h  1
  78  1.1830805e+01 7.26e-03 3.77e+00  -8.7 4.58e-01    -  4.48e-01 7.11e-02h  1
  79  1.1795977e+01 6.13e-03 1.87e+00  -5.1 3.17e-01    -  4.28e-01 7.08e-01h  1
iter    objective    inf_pr   inf_du lg(mu)  ||d||  lg(rg) alpha_du alpha_pr  ls
  80  1.1790742e+01 3.93e-03 6.19e+00  -3.7 1.41e-01    -  9.86e-01 3.24e-01h  1
  81  1.1779406e+01 1.66e-03 2.58e+00  -4.9 1.52e-01    -  6.41e-01 5.90e-01h  1
  82  1.1778517e+01 8.63e-04 1.26e+01  -4.1 6.79e-02    -  1.00e+00 4.51e-01h  1
  83  1.1777037e+01 6.63e-05 3.03e+00  -4.5 2.64e-02    -  1.00e+00 8.94e-01h  1
  84  1.1776699e+01 3.05e-07 3.47e+00  -4.7 1.64e-02    -  1.00e+00 7.77e-01h  1
  85  1.1776565e+01 9.06e-07 8.90e+00  -5.3 1.82e-02    -  1.00e+00 6.47e-01h  1
  86  1.1776523e+01 0.00e+00 2.08e-04  -5.7 5.43e-03    -  1.00e+00 1.00e+00h  1
  87  1.1776507e+01 1.42e-07 3.63e-05  -7.3 3.48e-03    -  9.99e-01 9.69e-01h  1
  88  1.1776506e+01 3.77e-10 2.64e-06  -9.3 1.01e-04    -  1.00e+00 9.94e-01h  1
  89  1.1776506e+01 8.88e-16 9.91e-08 -11.0 8.06e-06    -  1.00e+00 1.00e+00h  1
iter    objective    inf_pr   inf_du lg(mu)  ||d||  lg(rg) alpha_du alpha_pr  ls
  90  1.1776506e+01 8.88e-16 7.30e-10 -11.0 4.87e-07    -  1.00e+00 1.00e+00h  1

Number of Iterations....: 90

                                   (scaled)                 (unscaled)
Objective...............:   1.1776506168948945e+01    1.1776506168948945e+01
Dual infeasibility......:   7.2992382303739052e-10    7.2992382303739052e-10
Constraint violation....:   8.8817841970012523e-16    8.8817841970012523e-16
Variable bound violation:   0.0000000000000000e+00    0.0000000000000000e+00
Complementarity.........:   1.0000086202387097e-11    1.0000086202387097e-11
Overall NLP error.......:   7.2992382303739052e-10    7.2992382303739052e-10


Number of objective function evaluations             = 106
Number of objective gradient evaluations             = 73
Number of equality constraint evaluations            = 106
Number of inequality constraint evaluations          = 106
Number of equality constraint Jacobian evaluations   = 94
Number of inequality constraint Jacobian evaluations = 94
Number of Lagrangian Hessian evaluations             = 0
Total seconds in IPOPT                               = 3.555

EXIT: Optimal Solution Found.
